p ocr 13 24 48
1 30
1 32
1 34
2 19
2 28
2 36
3 16
3 19
3 21
3 22
3 23
3 24
3 26
3 29
3 31
3 32
3 35
3 37
4 17
4 21
4 34
5 15
5 25
5 26
6 14
6 16
6 30
7 15
7 20
7 22
8 17
8 27
8 31
9 18
9 33
9 37
10 18
10 27
10 35
11 23
11 25
11 36
12 14
12 24
12 28
13 20
13 29
13 33